100
1000
618
608
597
594
578
573
572
568
567
567
564
550
545
542
540
539
536
535
525
511
510
505
504
496
485
478
475
473
457
451
445
441
436
436
430
429
416
411
406
401
385
380
350
347
341
337
321
311
308
304
303
297
290
288
285
285
279
275
268
260
249
248
244
234
230
222
215
195
185
185
182
179
179
175
166
164
153
146
137
129
116
113
112
106
99
98
97
91
90
89
83
68
64
64
62
56
55
49
47
45
